WARNING: for repeatability, setting FPU to use double precision
============================[ Problem Statistics ]=============================
|                                                                             |
|  Number of variables:            50                                         |
|  Number of clauses:             218                                         |
|  Parse time:                   0.00 s                                       |
|                                                                             |
============================[ Search Statistics ]==============================
| Conflicts |          ORIGINAL         |          LEARNT          | Progress |
|           |    Vars  Clauses Literals |    Limit  Clauses Lit/Cl |          |
===============================================================================
===============================================================================
restarts              : 1
conflicts             : 37             (296000 /sec)
decisions             : 53             (0.00 % random) (424000 /sec)
propagations          : 554            (4432000 /sec)
conflict literals     : 135            (16.67 % deleted)
Memory used           : 20.00 MB
CPU time              : 0.000125 s

SATISFIABLE
